c colouring generated by benchmark framework
p edge 385 19095
v 1 25
v 2 3
v 3 8
v 4 9
v 5 7
v 6 18
v 7 17
v 8 10
v 9 3
v 10 5
v 11 16
v 12 20
v 13 1
v 14 6
v 15 25
v 16 12
v 17 3
v 18 8
v 19 5
v 20 13
v 21 3
v 22 2
v 23 17
v 24 6
v 25 7
v 26 10
v 27 2
v 28 6
v 29 23
v 30 11
v 31 3
v 32 21
v 33 17
v 34 20
v 35 8
v 36 5
v 37 4
v 38 21
v 39 3
v 40 16
v 41 7
v 42 16
v 43 20
v 44 6
v 45 7
v 46 17
v 47 23
v 48 15
v 49 7
v 50 15
v 51 23
v 52 10
v 53 24
v 54 3
v 55 16
v 56 1
v 57 4
v 58 5
v 59 14
v 60 22
v 61 19
v 62 24
v 63 3
v 64 10
v 65 1
v 66 11
v 67 20
v 68 23
v 69 15
v 70 20
v 71 23
v 72 17
v 73 1
v 74 18
v 75 5
v 76 14
v 77 16
v 78 19
v 79 24
v 80 5
v 81 10
v 82 2
v 83 19
v 84 21
v 85 5
v 86 7
v 87 12
v 88 23
v 89 17
v 90 1
v 91 18
v 92 20
v 93 19
v 94 17
v 95 1
v 96 18
v 97 13
v 98 24
v 99 1
v 100 3
v 101 5
v 102 4
v 103 2
v 104 0
v 105 0
v 106 8
v 107 7
v 108 14
v 109 2
v 110 1
v 111 9
v 112 17
v 113 5
v 114 19
v 115 6
v 116 10
v 117 13
v 118 12
v 119 13
v 120 8
v 121 9
v 122 14
v 123 0
v 124 11
v 125 1
v 126 12
v 127 13
v 128 7
v 129 3
v 130 23
v 131 24
v 132 16
v 133 4
v 134 21
v 135 24
v 136 15
v 137 18
v 138 20
v 139 23
v 140 0
v 141 3
v 142 9
v 143 7
v 144 6
v 145 1
v 146 8
v 147 5
v 148 3
v 149 14
v 150 20
v 151 12
v 152 11
v 153 6
v 154 6
v 155 3
v 156 3
v 157 20
v 158 23
v 159 4
v 160 1
v 161 7
v 162 5
v 163 9
v 164 2
v 165 20
v 166 5
v 167 8
v 168 0
v 169 14
v 170 24
v 171 3
v 172 23
v 173 25
v 174 7
v 175 17
v 176 4
v 177 8
v 178 12
v 179 1
v 180 0
v 181 14
v 182 20
v 183 18
v 184 1
v 185 6
v 186 2
v 187 9
v 188 14
v 189 13
v 190 20
v 191 10
v 192 3
v 193 6
v 194 22
v 195 17
v 196 8
v 197 16
v 198 8
v 199 21
v 200 7
v 201 10
v 202 7
v 203 24
v 204 5
v 205 16
v 206 17
v 207 1
v 208 23
v 209 13
v 210 7
v 211 17
v 212 14
v 213 2
v 214 15
v 215 1
v 216 24
v 217 4
v 218 14
v 219 16
v 220 25
v 221 18
v 222 20
v 223 23
v 224 19
v 225 24
v 226 25
v 227 1
v 228 5
v 229 6
v 230 22
v 231 5
v 232 10
v 233 2
v 234 18
v 235 18
v 236 21
v 237 3
v 238 15
v 239 3
v 240 10
v 241 15
v 242 16
v 243 3
v 244 8
v 245 5
v 246 16
v 247 13
v 248 23
v 249 15
v 250 0
v 251 6
v 252 24
v 253 3
v 254 7
v 255 1
v 256 15
v 257 14
v 258 2
v 259 7
v 260 1
v 261 22
v 262 23
v 263 10
v 264 21
v 265 3
v 266 8
v 267 20
v 268 2
v 269 23
v 270 15
v 271 20
v 272 7
v 273 1
v 274 11
v 275 0
v 276 24
v 277 0
v 278 7
v 279 1
v 280 18
v 281 19
v 282 24
v 283 3
v 284 23
v 285 17
v 286 8
v 287 14
v 288 2
v 289 20
v 290 23
v 291 5
v 292 23
v 293 21
v 294 8
v 295 2
v 296 14
v 297 11
v 298 7
v 299 1
v 300 25
v 301 3
v 302 8
v 303 5
v 304 11
v 305 18
v 306 3
v 307 2
v 308 22
v 309 9
v 310 7
v 311 25
v 312 1
v 313 1
v 314 11
v 315 17
v 316 11
v 317 1
v 318 12
v 319 22
v 320 15
v 321 17
v 322 14
v 323 8
v 324 5
v 325 19
v 326 11
v 327 8
v 328 6
v 329 9
v 330 20
v 331 8
v 332 7
v 333 17
v 334 1
v 335 7
v 336 17
v 337 1
v 338 24
v 339 8
v 340 19
v 341 5
v 342 14
v 343 2
v 344 5
v 345 14
v 346 2
v 347 8
v 348 5
v 349 22
v 350 7
v 351 18
v 352 17
v 353 5
v 354 7
v 355 4
v 356 20
v 357 0
v 358 17
v 359 1
v 360 0
v 361 4
v 362 0
v 363 9
v 364 4
v 365 5
v 366 4
v 367 20
v 368 23
v 369 4
v 370 7
v 371 17
v 372 1
v 373 0
v 374 24
v 375 3
v 376 2
v 377 6
v 378 4
v 379 5
v 380 10
v 381 6
v 382 1
v 383 0
v 384 22
v 385 0
